Route #1: 1 18 73 59 39 70 68 44 22 53
Route #2: 1 2 25 57 48 28 64 50 66 76
Route #3: 1 3 6 31 38 71 30 32
Route #4: 1 78 24 45 27 12 65 41 54 11 67 61
Route #5: 1 7 15 42 37 5 75 29 20 14 34 56 62
Route #6: 1 9 23 72 16 52 13 35 33 8
Route #7: 1 58 74 77 46 47
Route #8: 1 4 21 55 36 60 49
Route #9: 1 63 51 40 10 17 43
Route #10: 1 69 26 19
cost 1397
